(set-info :smt-lib-version 2.6)
(set-logic QF_S)
(set-info :source |
Generated by: Hung-En Wang, Tzung-Lin Tsai, Chun-Han Lin, Fang Yu, and Jie-Hong R. Jiang
Generated on: 2019-02-28
Generator: Stranger
Application: Security analysis of string manipulating web applications
Target solver: CVC4, Norn, Z3-str2
Publication:
Hung-En Wang, Tzung-Lin Tsai, Chun-Han Lin, Fang Yu, Jie-Hong R. Jiang:
String Analysis via Automata Manipulation with Logic Circuit Representation. CAV (1) 2016: 241-260.
|)
(set-info :license "https://creativecommons.org/licenses/by/4.0/")
(set-info :category "industrial")
(set-info :status unknown)

(declare-fun sigmaStar_0 () String)
(declare-fun sigmaStar_1 () String)
(declare-fun literal_13 () String)
(declare-fun x_12 () String)
(declare-fun epsilon () String)
(declare-fun literal_2 () String)
(declare-fun literal_6 () String)
(declare-fun literal_7 () String)
(declare-fun literal_5 () String)
(declare-fun x_14 () String)
(assert (= literal_13 "\u{67}\u{72}\u{61}\u{64}\u{65}\u{3a}\u{20}"))
(assert (= epsilon ""))
(assert (= literal_2 "\u{20}\u{2f}\u{20}"))
(assert (= literal_6 "\u{2d}"))
(assert (= literal_7 "\u{2d}"))
(assert (= literal_5 "\u{2d}"))
(assert (or (= x_12 epsilon) (= x_12 literal_2) (= x_12 literal_6) (= x_12 literal_7) (= x_12 literal_5)))
(assert (= x_14 (str.++ literal_13 x_12)))
(assert (str.in_re x_14 (re.++ (re.* re.allchar) (re.++ (str.to_re "\u{5c}\u{3c}\u{53}\u{43}\u{52}\u{49}\u{50}\u{54}") (re.* re.allchar)))))
(check-sat)
(exit)
